[Tab_AdminPlayerList]
AdminPlayerBan.Caption="Rechazar"
AdminPlayerBan.Hint="Rechazar a este jugador"
AdminPlayerKick.Caption="Expulsar"
AdminPlayerKick.Hint="Expulsar a este jugador"

[Browser_ServerListPageBuddy]
AddBuddyCaption="AÑADIR AMIGO"
RemoveBuddyCaption="QUITAR AMIGO"

[ServerBrowser]
MutantTypeName="Mutante"
InvasionTypeName="Invasión"
LMSTypeName="Último en pie"
MutantType="xJuego mutante"
InvasionType="Invasión"
LMSType="xÚltimo en pie"
MyBRServerListPage.PageCaption="Carr. bomb."
MyBuddiesPage.PageCaption="Amigos"
MyCTFServerListPage.PageCaption="CLB"
MyCustomServerListPage.PageCaption="Perso."
MyDMServerListPage.PageCaption="CM"
MyDomServerListPage.PageCaption="Dom. doble"
MyFavoritesPage.PageCaption="Favoritos"
MyIRCPage.PageCaption="Chat"
MyLANPage.PageCaption="LAN"
MyMOTDPage.PageCaption="Noticias"
MyPrefsPage.PageCaption="Filtro"
MyTDMServerListPage.PageCaption="CM equipo"
ServerBrowserHeader.Caption="Explorador de servidores"

[Browser_ServerListPageBase]
AddFavoriteButton.Caption="AÑADIR FAVORITO"
BackButton.Caption="VOLVER"
JoinButton.Caption="UNIRSE"
RefreshButton.Caption="ACTUALIZAR LISTA"
SpectateButton.Caption="ASISTIR"

[AdminPlayerList]
ColumnHeadings=("Nombre de jugador","ID única","IP")

[Browser_BuddyList]
ColumnHeadings=("Nombre de amigo")

[Browser_IRC]
SystemLabel="Sistema"
LeaveChannelCaption="ABANDONAR CANAL"
LeavePrivateCaptionHead="CERR."
ChooseNewNickText="Escoge un nuevo apodo para char"
MyBackButton.Caption="VOLVER"
MyChangeNickButton.Caption="CAMBIAR APODO"

[Browser_MOTD]
VersionString="Ver."
MyBackButton.Caption="VOLVER"
MyRefreshButton.Caption="ACTUALIZAR"
MyUpgradeButton.Caption="MEJORAR"

[Browser_Page]
StartQueryString="Consultando servidor principal"
AuthFailString="Fallo al identificar"
ConnFailString="Error de conexión: reintentando"
ConnTimeoutString="Fin de tiempo de conexión"
QueryCompleteString="¡Consulta completa!"
RefreshCompleteString="¡Actualización completa!"
ReadyString="Listo"

[Browser_PlayersList]
ColumnHeadings=("Nombre de jugador","Puntos","ID de estadísticas","Ping")

[Browser_Prefs]
ViewStatsStrings[0]="Cualquier servidor"
ViewStatsStrings[1]="Solo servidores de estadísticas"
ViewStatsStrings[2]="No servidores de estadísticas"
MutatorModeStrings[0]="Cualquier mutágeno"
MutatorModeStrings[1]="No mutágenos"
MutatorModeStrings[2]="Este mutágeno"
MutatorModeStrings[3]="No este mutágeno"
WeaponStayStrings[0]="Cualquier servidor"
WeaponStayStrings[1]="Solo servidores con permanencia de armas"
WeaponStayStrings[2]="No servidores con permanencia de armas"
TranslocatorStrings[0]="Cualquier servidor"
TranslocatorStrings[1]="Solo servidores con transportador"
TranslocatorStrings[2]="No servidores con transportador"
MyBackButton.Caption="VOLVER"
MyKeyButton.Caption="CLAVE DE ICONO"
FilterTitle.Caption="Opciones de filtro de servidor"
NoBotServersCheckBox.Caption="No servidores con bots"
NoEmptyCheckBox.Caption="No servidores vacíos"
NoFullCheckBox.Caption="No servidores llenos"
NoPasswdCheckBox.Caption="Servidores sin contraseña"
OnlyStandardCheckBox.Caption="Solo servidores estándar"
MutatorModeCombo.Caption="Mutágeno"
StatsViewCombo.Caption="Servidores de estadísticas"
TranslocatorCombo.Caption="Transportador"
WeaponStayCombo.Caption="Permanencia de armas"
CustomQuery.Caption="Consulta personalizada"
MaxGamespeed.Caption="Máx."
MinGamespeed.Caption="Vel. juego mínima"

[Browser_RulesList]
TrueString="Activado"
FalseString="Desactivado"
ServerModeString="Modo servidor"
DedicatedString="Dedicado"
NonDedicatedString="No dedicado"
AdminNameString="Admin. Servidor"
AdminEmailString="Admin. Email"
PasswordString="Necesita contraseña"
GameStatsString="Estadísticas de UT2003"
GameSpeedString="Vel. juego"
MutatorString="Mutágeno"
BalanceTeamsString="Bots equilibran equipos"
PlayersBalanceTeamsString="Equipos equilibrados"
FriendlyFireString="Fuego amigo"
GoalScoreString="Tanteo"
TimeLimitString="Límite Tiempo"
MinPlayersString="Mínimo jugadores (bots)"
TranslocatorString="Transportador"
WeaponStayString="Permanencia de armas"
ColumnHeadings=("Ajuste", "Valor")

[Browser_ServerListPageFavorites]
RemoveFavoriteCaption="QUITAR FAVORITO"
AddIPCaption="AÑADIR IP"
RePingCaption="RE-PING LISTA"

[Browser_ServerListPageMS]
QueryFinHead="¡Consulta completada! Recibidos:"
QueryFinTail="Servidores"
PingRecvString="Haciendo ping a servidores"
MustUpgradeString="Mejora disponible. Actualiza página de noticias."
RefreshFinHead="¡Ping completo!"
RefreshFinMid="Servidores,"
RefreshFinTail="Jugadores"
RePingServersCaption="RE-PING LISTA"
RefreshCaption="ACTUALIZAR LISTA"

[Browser_ServersList]
IconDescriptions=("Con contraseña","Estadísticas activadas","Última versión","Servidor de escucha","Instagib","Servidor estándar","UT Clásico")
ColumnHeadings=(,"Nombre de servidor","Mapa","Jug.","Ping")

[DefaultCrosshairs]
Crosshair=((FriendlyName="Cruz (1)"),(FriendlyName="Cruz (2)"),(FriendlyName="Cruz (3)"),(FriendlyName="Cruz (4)"),(FriendlyName="Cruz (5)"),(FriendlyName="Punto"),(FriendlyName="Puntero"),(FriendlyName="Triad (1)"),(FriendlyName="Triad (2)"),(FriendlyName="Triad (3)"),(FriendlyName="Corchete (1)"),(FriendlyName="Corchete (2)"),(FriendlyName="Círculo (1)"),(FriendlyName="Círculo (2)"))

[ExtendedConsole]
AddedCurrentHead="Servidor añadido"
AddedCurrentTail="¡A favoritos!"
SMStateName[0]="Menú de diálogo"
SMStateName[1]="Chat de voz"
SMStateName[2]="Recibido"
SMStateName[3]="Fuego amigo"
SMStateName[4]="Orden"
SMStateName[5]="Otros"
SMStateName[6]="Burla"
SMStateName[7]="Animación de burla"
SMStateName[8]="Seleccionar jugador"
SMChannelOptions[0]="Unirse"
SMChannelOptions[1]="Salir"
SMChannelOptions[2]="Hablar"
SMAllString="[TODOS]"
SMMoreString="[MÁS]"

[GUIController]
DesignModeHints=((Key=" Tecla",Description="                                Descripción"),(Key=" (F1)",Description="                                Ver esta pantalla de ayuda"),(Key=" Ctrl + Alt + D",Description="                      Activa el modo diseño"),(Key=" Ctrl + Alt + E",Description="                      Activa el modo editor de propiedades"),(Key=" [Ctrl +] H",Description="                          Activa info activa/enfoque"),(Key=" [Ctrl +] I",Description="                          Activa modo interactivo"),(Key=" [Ctrl +] P",Description="                          Activa cadenas de menú propietario completo para activo/enfoque"),(Key=" [Ctrl +] C",Description="                          Copiar posición MovimientoControl al portapapeles"),(Key=" [Ctrl +] X",Description="                          Exportar MovimientoControl al portapapeles"),(Key=" [Ctrl +] U",Description="                          Actualizar ventana de propiedad en el diseñador"),(Key=" [Ctrl +] Arriba/Abajo/Izquierda/Derecha",Description="         Reposicionar MovimientoControl usando las teclas de flecha"),(Key=" [Ctrl +] +/-",Description="                        Redimensionar MovimientoControl verticalmente"),(Key=" [Ctrl +] Num+/Num-",Description="                  Redimensionar componente seleccionado horizontalmente"),(Key=" [Ctrl +] WheelUp",Description="                    Fijar MovimientoControl a menú propietario MovimientoControl"),(Key=" [Ctrl +] WheenDown",Description="                  Establecer MovimientoControl a control enfoque de MovimientoControl"),(Key=" [(Ctrl + Alt) +] MouseX/Y+LMouse",Description="    Reposicionar MovimientoControl con el ratón"),(Key=" (Shift)",Description="                             Oculta todos los indicadores del modo diseño"),(Key=" (Ctrl + Alt)",Description="                        Ver cadena de enfoque"),(Key=" [Ctrl +] Tab",Description="                        Seleccionar nuevo MovimientoControl"),(Key=" [Ctrl +] LMouse",Description="                     Seleccionar nuevo MovimientoControl"))

[GUIQuestionPage]
ButtonNames=("Aceptar","Cancelar","Reintentar","Continuar","Sí","No","Abortar","Ignorar")

[HudBTeamDeathMatch]
LinkEstablishedMessage="VÍNCULO ESTABLECIDO"

[HudBase]
InstructionFontName="UT2003Fonts.jFontMono800x600"
LevelActionLoading="CARGANDO..."
LevelActionPaused="PAUSA"
LevelActionFontName="UT2003Fonts.FontMedium"
WonMatchPostFix=" ha ganado el encuentro."
WaitingToSpawn="¡Pulsa [Disparo] para unirte al encuentro!"
AtMenus="Pulsa [Esc] para cerrar este menú"
YouveWonTheMatch="¡Has ganado el encuentro!"
YouveLostTheMatch="Has perdido el encuentro."
NowViewing="Visión desde"
ScoreText="Puntos"
InitialViewingString="Pulsa [disparo] para ver desde un jugador diferente."
ProgressFontName="UT2003Fonts.FontMedium"
FontArrayNames[0]="UT2003Fonts.FontEurostile37"
FontArrayNames[1]="UT2003Fonts.FontEurostile29"
FontArrayNames[2]="UT2003Fonts.FontEurostile24"
FontArrayNames[3]="UT2003Fonts.FontEurostile21"
FontArrayNames[4]="UT2003Fonts.jFontMedium800x600"
FontArrayNames[5]="UT2003Fonts.jFontMedium"
FontArrayNames[6]="UT2003Fonts.FontEurostile12"
FontArrayNames[7]="UT2003Fonts.jFontSmallText800x600"
FontArrayNames[8]="UT2003Fonts.FontSmallText"

[HudCTeamDeathMatch]
LinkEstablishedMessage="ENLACE ESTABLECIDO"

[IRCLink]
InvalidAddressText="Direc. serv. invál., interrndo."
ErrorBindingText="Error acceso pto. local, interrndo."
ResolveFailedText="Fallo al resolver dir. serv., interrndo."
ConnectedText="Conectado."
ConnectingToText="Conectando a"
TimeOutError="Exceso de tiempo al conectar a servidor"
InviteString="te invita a unirte"
NickInUseText="Apodo ya usado"
NickInvalidText="Apodo no válido"

[IRC_Page]
HasLeftText="se ha ido"
HasJoinedText="se ha unido"
WasKickedByText="ha sido expulsado por"
NowKnownAsText="ahora se llama"
QuitText="Salir"
SetsModeText="establece modo"
NewTopicText="Tópico"

[IRC_System]
NotInAChannelText="¡No está en canal!"
KickedFromText="Fuiste expulsado de"
ByText="por"
IsAwayText="ausente"
ConnectText="CONECTAR"
DisconnectText="DESCONECTAR"
MyJoinChannelButton.Caption="UNIRSE AL CANAL"
MyRemoveChannelButton.Caption="ELIMINAR CANAL"
MyRemoveServerButton.Caption="ELIMINAR SERVIDOR"
MyChannelLabel.Caption="Canal"
MyServerLabel.Caption="Servidor"

[ScoreBoardDeathMatch]
RankText="RANGO"
PlayerText="JUGADOR"
PointsText="PUNTOS"
TimeText="TIEMPO:"
PingText="PING:"
PLText="P/L:"
DeathsText="MUERTES:"
AdminText="ADMIN"
NetText="RED"
FooterText="Tiempo total:"
MatchIDText="UT2003 estadísticas ID"
OutText="ELIMINADO"
OutFireText="   Estás ELIMINADO. Dispara para ver a otros jugadores."
ReadyText="LISTO"
NotReadyText="NO LISTO"
SkillLevel[0]="NOVATO"
SkillLevel[1]="NORMAL"
SkillLevel[2]="EXPERTO"
SkillLevel[3]="VIRTUOSO"
SkillLevel[4]="ADEPTO"
SkillLevel[5]="MAESTRO"
SkillLevel[6]="INHUMANO"
SkillLevel[7]="SEMIDIÓS"
MaxLives="VIDAS MAX:"
FragLimit="LÍMITE ABATIDOS:"
FPH="PPH"
GameType="JUEGO"
MapName=" en "
Restart="   Te han matado. ¡Pulsa disparo para reaparecer!"
Continue="¡Pulsa [Fire] para continuar!"
Ended="¡El encuentro ha terminado!"
TimeLimit="TIEMPO RESTANTE:"
Spacer=" "

[ScoreBoardTeamDeathMatch]
FragLimit="LIMITE DE PUNTUACIÓN:"

[Tab_AudioSettings]
AudioModes[0]="Sonido 3D por software"
AudioModes[1]="Sonido 3D por hardware"
AudioModes[2]="Sonido 3D por hardware + EAX"
AudioModes[3]="Modo seguro"
VoiceModes[0]="Todos"
VoiceModes[1]="Sin auto-burla"
VoiceModes[2]="Sin burlas"
VoiceModes[3]="Ninguno"
AnnounceModes[0]="Ninguno"
AnnounceModes[1]="Mínimos"
AnnounceModes[2]="Todos"
AudioEffectsVolumeLabel.Caption="Volumen de efectos"
AudioMusicVolumeLabel.Caption="Volumen de música"
AudioVoiceVolumeLabel.Caption="Volumen de comentarista"
AudioEffectsVolumeSlider.Hint="Cambia el volumen de todos los efectos de sonido del juego."
AudioMusicVolumeSlider.Hint="Cambia el volumen de la música de fondo."
AudioVoiceVolumeSlider.Hint="Cambia el volumen de todos los mensajes de voz."
AudioAutoTaunt.Caption="Auto-burla"
AudioAutoTaunt.Hint="Permite que tu jugador se burle automáticamente de los oponentes."
AudioLowDetail.Caption="Detalle de sonido bajo"
AudioLowDetail.Hint="Baja la calidad del sonido."
AudioMatureTaunts.Caption="Burlas para adultos"
AudioMatureTaunts.Hint="Activa comentarios fuera de tono."
AudioMessageBeep.Caption="Sonido de mensaje"
AudioMessageBeep.Hint="Activa un sonido al recibir un mensaje de texto de otros jugadores."
AudioReverseStereo.Caption="Invertir estéreo"
AudioReverseStereo.Hint="Invierte los canales de sonido izquierdo y derecho."
AudioAnnounce.Caption="Comentarios"
AudioAnnounce.Hint="Establece la cantidad de comentarios durante el juego."
AudioAnnouncerPack.Caption="Voz de comentarista"
AudioAnnouncerPack.Hint="Selecciona el comentarista para el encuentro de esta noche."
AudioMode.Caption="Modo de sonido"
AudioMode.Hint="Cambio el modo del sistema de sonido."
AudioPlayVoices.Caption="Reproducir voces"
AudioPlayVoices.Hint="Define los tipos de mensajes de voz a reproducir."

[Tab_ControlSettings]
Bindings=((KeyLabel="Movimiento"),(KeyLabel="Adelante"),(KeyLabel="Atrás"),(KeyLabel="Lateral a la izq."),(KeyLabel="Lateral a la dch."),(KeyLabel="Saltar"),(KeyLabel="Andar"),(KeyLabel="Agazaparse"),(KeyLabel="Activar despl. lateral"),(KeyLabel="Mirar"),(KeyLabel="Girar izq."),(KeyLabel="girar dcha."),(KeyLabel="Mirar arriba"),(KeyLabel="Mirar abajo"),(KeyLabel="Centrar vista"),(KeyLabel="Armas"),(KeyLabel="Disparo"),(KeyLabel="Disparo-alt"),(KeyLabel="Arrojar arma"),(KeyLabel="Mejor arma"),(KeyLabel="Arma siguiente"),(KeyLabel="Arma anterior"),(KeyLabel="Última arma"),(KeyLabel="Selección de arma"),(KeyLabel="Superarma"),(KeyLabel="Cañón protector"),(KeyLabel="Rifle de asalto"),(KeyLabel="Biorifle"),(KeyLabel="Rifle de choque"),(KeyLabel="Enlazadora"),(KeyLabel="Cañón automático"),(KeyLabel="Cañón antiaéreo"),(KeyLabel="Lanzacohetes"),(KeyLabel="Arma eléctrica"),(KeyLabel="Transportador"),(KeyLabel="Comunicación"),(KeyLabel="Decir"),(KeyLabel="Decir al equipo"),(KeyLabel="Menú de voz"),(KeyLabel="Burlas"),(KeyLabel="Baile pélvico"),(KeyLabel="Azote de culo"),(KeyLabel="Rajar garganta"),(KeyLabel="Hud"),(KeyLabel="Aumentar Hud"),(KeyLabel="Reducir Hud"),(KeyLabel="Miscelánea"),(KeyLabel="Pausa"),(KeyLabel="Capturar pantalla"),(KeyLabel="Menú"),(KeyLabel="Marcador"),(KeyLabel="Activar marcador"),(KeyLabel="Chat en juego"),(KeyLabel="Info de servidor"))
Labels=("Movimiento","Adelante","Atrás","Lateral a la izq.","Lateral a la dch.","Saltar","Andar","Agazaparse","Activar despl. lateral","Mirar","Girar izq.","Girar dch.","Mirar arriba","Mirar abajo","Centrar vista","Armas","Disparo","Disparo-alt","Arrojar arma","Mejor arma","Arma siguiente","Arma anterior","Última arma","Selección de arma","Superarma","Cañón protector","Rifle de asalto","Biorifle","Rifle de choque","Enlazadora","Cañón automático","Cañón antiaéreo","Lanzacohetes","Arma eléctrica","Transportador","Comunicación","Decir","Decir al equipo","Menú de voz","Burlas","Baile pélvico","Azote de culo","Rajar garganta","Hud","Aumentar Hud","Reducir Hud","Miscelánea","Pausa","Capturar pantalla","Menú","Marcador","Activar marcador","Chat en juego","Info de servidor")
Header="["
Footer="] Realizar esta acción"
KeyResetButton.Caption="REAJUSTE"
KeyResetButton.Hint="Reajustar las teclas a sus valores predeterminados"
KeyConfigAliasLabel.Caption="Acción"
KeyConfigAliasLabel2.Caption="Tecla 1"
KeyConfigAliasLabel3.Caption="Tecla 2"
KeyConfigKeyList.Hint="Seleccionar control que configurar"

[Tab_DetailSettings]
DetailLevels[0]="Mínimo"
DetailLevels[1]="Menor"
DetailLevels[2]="Bajo"
DetailLevels[3]="Normal"
DetailLevels[4]="Alto"
DetailLevels[5]="Mayor"
DetailLevels[6]="Máximo"
DetailBlob.Caption="Usar sombras simples"
DetailBlob.Hint="Activar sombras simples. Recomendada para PC de bajo rendimiento."
DetailCharacterShadows.Caption="Sombras de personajes"
DetailCharacterShadows.Hint="Activar sombras de personajes."
DetailCoronas.Caption="Coronas"
DetailCoronas.Hint="Activar coronas."
DetailDecals.Caption="Transparencias"
DetailDecals.Hint="Activar efectos de disparos."
DetailDecoLayers.Caption="Vegetación"
DetailDecoLayers.Hint="Activar césped y otra vegetación."
DetailDetailTextures.Caption="Texturas detalladas"
DetailDetailTextures.Hint="Activar texturas detalladas."
DetailDynamicLighting.Caption="Iluminación dinámica"
DetailDynamicLighting.Hint="Activar iluminación dinámica."
DetailProjectors.Caption="Proyecciones"
DetailProjectors.Hint="Activar proyecciones."
DetailTrilinear.Caption="Filtro trilineal"
DetailTrilinear.Hint="Activar filtro trilineal, recomendado para PC de gran rendimiento."
DetailActorDetail.Caption="Detalles de mundo"
DetailActorDetail.Hint="Cambia el nivel de detalles usado para geometría opcional y efectos."
DetailCharacterDetail.Caption="Detalles de los personajes"
DetailCharacterDetail.Hint="Cambia la cantidad de detalles de personaje que se va a procesar."
DetailDecalStay.Caption="Permanencia de transparencias"
DetailDecalStay.Hint="Cambia el tiempo que permanecen los efectos de los disparos."
DetailPhysics.Caption="Detalles físicos"
DetailPhysics.Hint="Cambia el nivel de detalles físicos en la simulación."
DetailWorldDetail.Caption="Detalle de texturas"
DetailWorldDetail.Hint="Cambia la cantidad de detalles del mundo que se va a procesar."

[Tab_GameSettings]
CrosshairNames[0]="Oculto"
CrosshairNames[1]="Cruz (1)"
CrosshairNames[2]="Cruz (2)"
CrosshairNames[3]="Cruz (3)"
CrosshairNames[4]="Cruz (4)"
CrosshairNames[5]="Cruz (5)"
CrosshairNames[6]="Punto"
CrosshairNames[7]="Puntero"
CrosshairNames[8]="Tríada (1)"
CrosshairNames[9]="Tríada (1)"
CrosshairNames[10]="Tríada (1)"
CrosshairNames[11]="Corchete (1)"
CrosshairNames[12]="Corchete (1)"
CrosshairNames[13]="Círculo (1)"
CrosshairNames[14]="Círculo (2)"
GameHudCrossHairALabel.Caption="Opacidad:"
GameHudCrossHairBLabel.Caption="Azul:"
GameHudCrossHairGLabel.Caption="Verde :"
GameHudCrossHairRLabel.Caption="Rojo:"
GameHudCrossHairA.Hint="Cambia el color del punto de mira."
GameHudCrossHairB.Hint="Cambia el color del punto de mira."
GameHudCrossHairG.Hint="Cambia el color del punto de mira."
GameHudCrossHairR.Hint="Cambia el color del punto de mira."
GameAutoAim.Caption="Apuntar automáticamente"
GameAutoAim.Hint="Activa esta opción para que el juego te ayude a apuntar (no disponible en multijugador)."
GameDeathMsgs.Caption="No mostrar mensajes de muerte"
GameDeathMsgs.Hint="Apagar los mensajes de muertes de consola."
GameDodging.Caption="Esquivar"
GameDodging.Hint="Desactiva esta opción para anular los movimientos especiales de esquiva."
GameReduceGore.Caption="Reducir violencia"
GameReduceGore.Hint="Activa esta opción para reducir la cantidad de sangre y entrañas que se mostrará."
GameScreenFlashes.Caption="Destello en pantalla"
GameScreenFlashes.Hint="Desactiva esta opción para anular los destellos en pantalla cuando recibes daño."
GameWeaponBob.Caption="Sacudida de arma"
GameWeaponBob.Hint="Evita que el arma se desvíe arriba y abajo mientras te mueves."
GameCrossHair.Caption="Punto de mira"
GameCrossHair.Hint="¡Selecciona tu punto de mira!"

[Tab_HudSettings]
CrosshairNames[0]="Oculto"
CrosshairNames[1]="Cruz (1)"
CrosshairNames[2]="Cruz (2)"
CrosshairNames[3]="Cruz (3)"
CrosshairNames[4]="Cruz (4)"
CrosshairNames[5]="Cruz (5)"
CrosshairNames[6]="Punto"
CrosshairNames[7]="Puntero"
CrosshairNames[8]="Tríada (1)"
CrosshairNames[9]="Tríada (1)"
CrosshairNames[10]="Tríada (1)"
CrosshairNames[11]="Corchete (1)"
CrosshairNames[12]="Corchete (1)"
CrosshairNames[13]="Círculo (1)"
CrosshairNames[14]="Círculo (2)"
GameHudOpacityLabel.Caption="Opacidad de HUD"
GameHudScaleLabel.Caption="Escala del HUD"
GameHudOpacity.Hint="Cambia el nivel de opacidad del HUD."
GameHudScale.Hint="Cambia el nivel de opacidad del HUD."
GameHudShowEnemyNames.Caption="Mostrar nombre de enemigos"
GameHudShowPersonalInfo.Caption="Mostrar información personal"
GameHudShowPortraits.Caption="Mostrar retratos"
GameHudShowScore.Caption="Mostrar tanteo"
GameHudShowWeaponBar.Caption="Mostrar barra de arma"
GameHudShowWeaponInfo.Caption="Mostrar información de arma"
GameHudVisible.Caption="Ocultar HUD"
GameHudVisible.Hint="Esta opción activa/desactiva el HUD."
GameHudMessageCount.Caption="Visualización máx. de chat"
GameHudMessageOffset.Caption="Tamaño de fuentes de mensajes"
GameHudMessageScale.Caption="Tamaño de fuentes de chat"

[Tab_IABombingRun]
GoalScoreText="Límite de puntuación"

[Tab_IACaptureTheFlag]
GoalScoreText="Límite de capturas"

[Tab_IADeathMatch]
GoalScoreText="Límite de abatidos"
IARulesAutoAdjustSkill.Caption="Auto ajustar habilidad de bots"
IARulesAutoAdjustSkill.Hint="Cuando se activa, los bots ajustarán sus habilidades a las tuyas"

[Tab_IADoubleDomination]
GoalScoreText="Límite de puntuación"

[Tab_InstantActionBaseRules]
PercentText="porcentaje"
IARulesFriendlyFireLabel.Caption="Fuego amigo"
IARulesGameSpeedLabel.Caption="Vel. juego"
IARulesFriendlyFireSlider.Hint="Esta opción controla cuánto daño le haces a tus compañeros de equipo."
IARulesGameSpeedSlider.Hint="Esta opción controla la velocidad de juego."
IARulesAllowWeaponThrow.Caption="Permitir arrojar armas"
IARulesAllowWeaponThrow.Hint="Cuando se selecciona, los jugadores tendrán la habilidad de arrojar su arma actual."
IARulesBrightSkins.Caption="Pieles brillantes"
IARulesBrightSkins.Hint="Cuando se selecciona, el servidor hará que las pieles sean más brillantes de lo habitual."
IARulesTranslocator.Caption="Incluir transportador"
IARulesTranslocator.Hint="Activa esta opción para permitir transportadores."
IARulesWeaponStay.Caption="Permanencia de armas"
IARulesWeaponStay.Hint="Si se activa, las armas siempre estarán listas para recogerse."
IARulesGoalScore.Caption="Tanteo"
IARulesGoalScore.Hint="El juego acabará cuando se alcance este límite."
IARulesMaxLives.Caption="Vidas máximas"
IARulesMaxLives.Hint="Si este valor es diferente a 0, solo reaparecerás ese número de veces."
IARulesTimeLimit.Caption="LímiteTpo."
IARulesTimeLimit.Hint="La partida terminará después de esta cantidad de minutos de juego."

[Tab_InstantActionMain]
DifficultyLevels[0]="Novato"
DifficultyLevels[1]="Normal"
DifficultyLevels[2]="Experto"
DifficultyLevels[3]="Virtuoso"
DifficultyLevels[4]="Adepto"
DifficultyLevels[5]="Maestro"
DifficultyLevels[6]="Inhumano"
DifficultyLevels[7]="Semidiós"
MessageNoInfo="¡No hay información disponible!"
IAMain_MapAuthor.Caption="Probando"
IAMain_MapName.Caption="Probando"
IAMain_MapPlayers.Caption="Mejor para 4-8 jugadores"
IAMain_MapList.Hint="Selecciona el mapa a jugar"
IAMain_UseCustomBots.Caption="Usar bots personalizados"
IAMain_UseCustomBots.Hint="Cuando se activa, puedes usar la pestaña de bots para escoger los bots con los que jugar."
IAMain_UseMapBots.Caption="Usar número de bots del mapa"
IAMain_UseMapBots.Hint="Cuando se activa, se usa el número de bots recomendado para el mapa."
IAMain_BotSkill.Caption="Habilidad de bot"
IAMain_BotSkill.Hint="Escoge la habilidad de los bots con los que deseas jugar."
IAMain_GameType.Caption="Tipo de juego:"
IAMain_GameType.Hint="Selecciona el tipo de juego que deseas."
IAMain_BotCount.Caption="Número de bots"
IAMain_BotCount.Hint="Escoge el número de bots con los que deseas jugar."

[Tab_MultiplayerHostMain]
MessageNoInfo="¡No hay información disponible!"
MPHostListAdd.Caption="Añadir"
MPHostListAdd.Hint="Añadir este mapa a la lista de mapas."
MPHostListAll.Caption="Añad. todos"
MPHostListAll.Hint="Añadir todos los mapas a la lista de mapas."
MPHostListClear.Caption="Elim. todos"
MPHostListClear.Hint="Quitar todos los mapas de lista de mapas"
MPHostListDown.Caption="Abajo"
MPHostListDown.Hint="Mover mapa abajo en la lista de mapas"
MPHostListRemove.Caption="Eliminar"
MPHostListRemove.Hint="Quitar este mapa de lista de mapas"
MPHostListUp.Caption="Arriba"
MPHostListUp.Hint="Subir mapa en la lista de mapas"
IAMain_MapAuthor.Caption="Probando"
IAMain_MapPlayers.Caption="Mejor para 4-8 jugadores"
MPHostMapName.Caption="Probando"
MPHostListCurMapList.Hint="Seleccionar mapa en el que jugar"
MPHostListFullMapList.Hint="Seleccionar mapa en el que jugar"
MPHost_GameType.Caption="Tipo de juego:"
MPHost_GameType.Hint="Selecciona el tipo de juego que deseas."

[Tab_NetworkSettings]
NetSpeedText[0]="Módem"
NetSpeedText[1]="RDSI"
NetSpeedText[2]="Cable/ADSL"
NetSpeedText[3]="LAN/T1"
StatsURL="http://ut2003stats.epicgames.com/"
EpicIDMsg="Tu id exclusiva es:"
ViewOnlineStats.Caption="Ver estadísticas"
ViewOnlineStats.Hint="Hacer clic para ir al sitio web de estadísticas de Unreal."
EpicID.Caption="Tu id exclusiva es:"
InvalidWarning.Caption="El nombre de usuario o contraseña son inválidos. El nombre de usuario debe tener al menos 4 caracteres de largo y la contraseña debe tener al menos 6."
OnlineStatDesc.Caption="Estadísticas generales de UT2003"
NetworkDynamicNetspeed.Caption="Velocidad de conexión dinámica"
NetworkDynamicNetspeed.Hint="Ajusta la velocidad de red en las conexiones lentas."
OnlineTrackStats.Caption="Seguimiento estadísticas"
OnlineTrackStats.Hint="Activa esta opción para unirte al sistema de clasificaciones online."
OnlineNetSpeed.Caption="Conexión"
OnlineNetSpeed.Hint="¿Velocidad de tu conexión?"
OnlineStatsName.Caption="Nombre de usuario de Estadísticas"
OnlineStatsName.Hint="¡Selecciona un nombre para identificar tus estadísticas!"
OnlineStatsPW.Caption="Contraseña de estadísticas"
OnlineStatsPW.Hint="¡Selecciona una contraseña para asegurar tus estadísticas!"

[Tab_PlayerSettings]
HandNames[0]="Derecha"
HandNames[1]="Oculto"
HandNames[2]="Izquierda"
HandNames[3]="Centrar"
TeamNames[0]="Roj"
TeamNames[1]="Azul"
ShowBioCaption="Bio"
Show3DViewCaption="Vista 3D"
Player3DView.Caption="Vista 3D"
Player3DView.Hint="Cambiar entre vista 3D y biografía de personaje."
PlayerOGG.Caption="Lista de música"
PlayerOGG.Hint="Configura tu lista de música OGG."
PlayerCharList.Hint="Cambia el personaje con el que juegas."
PlayerSmallWeap.Caption="Armas pequeñas"
PlayerSmallWeap.Hint="Hace que tu arma en primera persona sea más pequeña."
PlayerHand.Caption="Armas"
PlayerHand.Hint="Cambia que tu arma sea visible."
PlayerTeam.Caption="Equipo preferido"
PlayerTeam.Hint="Cambia el equipo en el que jugarás por defecto."
PlayerName.Caption="Nombre"
PlayerName.Hint="Cambia el apodo con el que juegas"
PlayerFOV.Caption="CV predeterminado"
PlayerFOV.Hint="Este valor cambiará tu campo visual."

[Tab_SPProfileLoad]
Difficulties[0]="Novato"
Difficulties[1]="Normal"
Difficulties[2]="Experto"
Difficulties[3]="Virtuoso"
Difficulties[4]="Adepto"
Difficulties[5]="Maestro"
Difficulties[6]="Inhumano"
Difficulties[7]="Semidiós"
DeleteMessage="Estás a punto de borrar el perfil de '%prof%'||¿Seguro que quieres borrar este perfil?"
btnDelete.Caption="BORRAR PERFIL"
btnDelete.Hint="Borrar perfil seleccionado actualmente"
btnLoad.Caption="CARGAR PERFIL"
btnLoad.Hint="Cargar el perfil seleccionado"
btnNew.Caption="NUEVO PERFIL"
btnNew.Hint="Ir al menú de creación de perfil"
imagePlayerSkin.Hint="Seleccionar la apariencia de tu personaje"
imageTeamSymbol.Hint="Seleccionar el escudo de tu equipo"
SPPLLblProfiles.Caption="LISTAS DE PERFILES"
SPPLLblStats.Caption="ESTADÍSTICAS DE PERFILES"
lboxProfile.Hint="Seleccionar perfil"
moebDeaths.Caption="Muertes:"
moebDeaths.Hint="Número de veces que este personaje ha muerto"
moebDifficulty.Caption="Dificultad:"
moebDifficulty.Hint="Índice de dificultad de este torneo"
moebGoals.Caption="Tantos:"
moebGoals.Hint="Número de tantos anotados por este personaje"
moebKills.Caption="Abatidos:"
moebKills.Hint="Número de enemigos abatidos por este personaje"
moebMatches.Caption="Encuentros:"
moebMatches.Hint="Número de encuentros jugados por este personaje"
moebPlayerName.Caption="Nombre de jugador:"
moebPlayerName.Hint="Nombre de tu jugador"
moebTeamName.Caption="Nombre de equipo:"
moebTeamName.Hint="El nombre de tu equipo"
moebWins.Caption="Victorias:"
moebWins.Hint="Número de encuentros ganados por este personaje"

[Tab_SPProfileNew]
DefaultName="Jugador"
DefaultTeamName="Equipo"
Err_ProfileExists="¡El perfil %prof% ya existe!"
Err_CantCreateProfile="Fallo al crear perfil."
btnBack.Caption="VOLVER"
btnBack.Hint="Volver al menú anterior"
btnDefaults.Caption="RESTABLECER PRED."
btnDefaults.Hint="Devuelve este perfil a sus valores predeterminados"
btnSaveProfile.Caption="CREAR PERFIL"
btnSaveProfile.Hint="Crear un perfil con estos ajustes"
clistPlayerSkins.Hint="Apariencia de tu personaje, usa el cursor para cambiar"
btnNextSkin.Hint="Seleccionar nueva apariencia de personaje"
btnNextSymbol.Hint="Seleccionar nuevo escudo de equipo"
btnPrevSkin.Hint="Seleccionar nueva apariencia de personaje"
btnPrevSymbol.Hint="Seleccionar nuevo escudo de equipo"
ilTeamSymbols.Hint="El escudo de tu equipo; usa las teclas de cursor para cambiar"
lblCharacter.Caption="Seleccionar|Personaje"
lblTeamSymbol.Caption="Seleccionar|Escudo del equipo"
mocbDifficulty.Caption="Dificultad:"
mocbDifficulty.Hint="Personalizar desafío"
moebPlayerName.Caption="Nombre de jugador:"
moebPlayerName.Hint="Nombre de tu jugador"
moebTeamName.Caption="Nombre de equipo:"
moebTeamName.Hint="El nombre de tu equipo"

[Tab_SPRoster]
MessageNoInfo="No hay información disponible."
PostStatsMessage="Estadísticas"
SPRosterCharList.Hint="Escoge un compañero de equipo para jugar el siguiente encuentro"
cboMate1.Hint="Establece la posición de inicio: cambia con menú de voz durante el encuentro"
cboMate2.Hint="Establece la posición de inicio: cambia con menú de voz durante el encuentro"
cboMate3.Hint="Establece la posición de inicio: cambia con menú de voz durante el encuentro"
cboMate4.Hint="Establece la posición de inicio: cambia con menú de voz durante el encuentro"